(set-logic QF_UF)
(declare-fun car () Bool)
(declare-fun circuit () Bool)
(declare-fun clk () Bool)
(declare-fun prt () Bool)
(assert (not (or (or (not car) clk) (not (not car)))))
(assert (not (or (or (not car) clk) (not (not car)))))
(assert (or (or (not car) clk) (not (not car))))
(assert (or (or (or (not car) clk) (not (not car))) (not (or (not car) clk))))
(assert (or (or (or (not car) clk) (not (not car))) (not (not (not car)))))
(check-sat)
(exit)
